;symbolic execution tree
(push)
(assert (le x1 siena.Filter))
(check-sat)
(push)
(assert (le x0 java.lang.String))
(check-sat)
(push)
(assert (le x1 siena.Filter))
(check-sat)
(pop)
(push)
(assert (not (le x1 siena.Filter)))
(check-sat)
(pop)
(push)
(assert (le x0 java.lang.String))
(check-sat)
(pop)
(push)
(assert (not (le x0 java.lang.String)))
(check-sat)
(pop)
(pop)
(push)
(assert (not (le x0 java.lang.String)))
(check-sat)
(push)
(assert (le x1 siena.Filter))
(check-sat)
(pop)
(push)
(assert (not (le x1 siena.Filter)))
(check-sat)
(pop)
(pop)
(push)
(assert (le x0 java.lang.String))
(check-sat)
(push)
(assert (le x1 siena.Filter))
(check-sat)
(push)
(assert (le x0 java.lang.String))
(check-sat)
(pop)
(push)
(assert (not (le x0 java.lang.String)))
(check-sat)
(pop)
(push)
(assert (le x1 siena.Filter))
(check-sat)
(pop)
(push)
(assert (not (le x1 siena.Filter)))
(check-sat)
(pop)
(push)
(assert (le x1 siena.Filter))
(check-sat)
(pop)
(push)
(assert (not (le x1 siena.Filter)))
(check-sat)
(pop)
(pop)
(push)
(assert (not (le x1 siena.Filter)))
(check-sat)
(pop)
(push)
(assert (le x1 siena.Filter))
(check-sat)
(pop)
(push)
(assert (not (le x1 siena.Filter)))
(check-sat)
(pop)
(push)
(assert (le x1 siena.Filter))
(check-sat)
(push)
(assert (le x0 java.lang.String))
(check-sat)
(pop)
(push)
(assert (not (le x0 java.lang.String)))
(check-sat)
(pop)
(pop)
(push)
(assert (not (le x1 siena.Filter)))
(check-sat)
(pop)
(pop)
(push)
(assert (not (le x0 java.lang.String)))
(check-sat)
(push)
(assert (le x0 java.lang.String))
(check-sat)
(pop)
(push)
(assert (not (le x0 java.lang.String)))
(check-sat)
(pop)
(pop)
(push)
(assert (le x1 siena.Filter))
(check-sat)
(push)
(assert (le x1 siena.Filter))
(check-sat)
(pop)
(push)
(assert (not (le x1 siena.Filter)))
(check-sat)
(pop)
(push)
(assert (le x0 java.lang.StringBuilder))
(check-sat)
(pop)
(push)
(assert (not (le x0 java.lang.StringBuilder)))
(check-sat)
(pop)
(push)
(assert (le x0 siena.Event))
(check-sat)
(push)
(assert (le x0 siena.Event))
(check-sat)
(pop)
(push)
(assert (not (le x0 siena.Event)))
(check-sat)
(pop)
(pop)
(push)
(assert (not (le x0 siena.Event)))
(check-sat)
(pop)
(pop)
(push)
(assert (not (le x1 siena.Filter)))
(check-sat)
(pop)
(push)
(assert (le x0 java.io.PrintStream))
(check-sat)
(pop)
(push)
(assert (not (le x0 java.io.PrintStream)))
(check-sat)
(push)
(assert (le x1 siena.Filter))
(check-sat)
(pop)
(push)
(assert (not (le x1 siena.Filter)))
(check-sat)
(pop)
(pop)
(push)
(assert (le x1 siena.Filter))
(check-sat)
(push)
(assert (le x0 java.lang.String))
(check-sat)
(pop)
(push)
(assert (not (le x0 java.lang.String)))
(check-sat)
(pop)
(pop)
(push)
(assert (not (le x1 siena.Filter)))
(check-sat)
(pop)
(push)
(assert (le x0 java.lang.StringBuilder))
(check-sat)
(push)
(assert (le x1 siena.Filter))
(check-sat)
(pop)
(push)
(assert (not (le x1 siena.Filter)))
(check-sat)
(pop)
(push)
(assert (le x0 java.lang.StringBuilder))
(check-sat)
(pop)
(push)
(assert (not (le x0 java.lang.StringBuilder)))
(check-sat)
(pop)
(push)
(assert (le x0 java.lang.StringBuilder))
(check-sat)
(push)
(assert (le x1 siena.Filter))
(check-sat)
(pop)
(push)
(assert (not (le x1 siena.Filter)))
(check-sat)
(pop)
(pop)
(push)
(assert (not (le x0 java.lang.StringBuilder)))
(check-sat)
(pop)
(push)
(assert (le x1 siena.Filter))
(check-sat)
(pop)
(push)
(assert (not (le x1 siena.Filter)))
(check-sat)
(pop)
(push)
(assert (le x1 siena.Filter))
(check-sat)
(pop)
(push)
(assert (not (le x1 siena.Filter)))
(check-sat)
(pop)
(push)
(assert (le x0 java.lang.StringBuilder))
(check-sat)
(pop)
(push)
(assert (not (le x0 java.lang.StringBuilder)))
(check-sat)
(pop)
(push)
(assert (le x0 java.lang.StringBuilder))
(check-sat)
(pop)
(push)
(assert (not (le x0 java.lang.StringBuilder)))
(check-sat)
(pop)
(push)
(assert (le x0 java.lang.StringBuilder))
(check-sat)
(push)
(assert (le x1 siena.Filter))
(check-sat)
(pop)
(push)
(assert (not (le x1 siena.Filter)))
(check-sat)
(pop)
(pop)
(push)
(assert (not (le x0 java.lang.StringBuilder)))
(check-sat)
(pop)
(push)
(assert (le x0 java.lang.StringBuilder))
(check-sat)
(pop)
(push)
(assert (not (le x0 java.lang.StringBuilder)))
(check-sat)
(pop)
(push)
(assert (le x1 siena.Filter))
(check-sat)
(pop)
(push)
(assert (not (le x1 siena.Filter)))
(check-sat)
(pop)
(push)
(assert (le x0 java.lang.StringBuilder))
(check-sat)
(pop)
(push)
(assert (not (le x0 java.lang.StringBuilder)))
(check-sat)
(pop)
(pop)
(push)
(assert (not (le x0 java.lang.StringBuilder)))
(check-sat)
(pop)
(push)
(assert (le x1 siena.Filter))
(check-sat)
(push)
(assert (le x0 siena.Tokenizer))
(check-sat)
(pop)
(push)
(assert (not (le x0 siena.Tokenizer)))
(check-sat)
(pop)
(push)
(assert (le x1 siena.Filter))
(check-sat)
(push)
(assert (le x0 java.lang.StringBuilder))
(check-sat)
(pop)
(push)
(assert (not (le x0 java.lang.StringBuilder)))
(check-sat)
(pop)
(pop)
(push)
(assert (not (le x1 siena.Filter)))
(check-sat)
(pop)
(push)
(assert (le x1 siena.Filter))
(check-sat)
(pop)
(push)
(assert (not (le x1 siena.Filter)))
(check-sat)
(pop)
(push)
(assert (le x1 siena.Filter))
(check-sat)
(pop)
(push)
(assert (not (le x1 siena.Filter)))
(check-sat)
(pop)
(pop)
(push)
(assert (not (le x1 siena.Filter)))
(check-sat)
(pop)
(push)
(assert (le x1 siena.Filter))
(check-sat)
(push)
(assert (le x1 siena.Filter))
(check-sat)
(pop)
(push)
(assert (not (le x1 siena.Filter)))
(check-sat)
(pop)
(push)
(assert (le x0 java.lang.String))
(check-sat)
(push)
(assert (le x0 java.lang.String))
(check-sat)
(push)
(assert (le x0 java.lang.String))
(check-sat)
(pop)
(push)
(assert (not (le x0 java.lang.String)))
(check-sat)
(pop)
(pop)
(push)
(assert (not (le x0 java.lang.String)))
(check-sat)
(pop)
(pop)
(push)
(assert (not (le x0 java.lang.String)))
(check-sat)
(push)
(assert (le x1 siena.Filter))
(check-sat)
(pop)
(push)
(assert (not (le x1 siena.Filter)))
(check-sat)
(pop)
(push)
(assert (le x1 siena.Filter))
(check-sat)
(push)
(assert (le x1 siena.Filter))
(check-sat)
(pop)
(push)
(assert (not (le x1 siena.Filter)))
(check-sat)
(pop)
(pop)
(push)
(assert (not (le x1 siena.Filter)))
(check-sat)
(pop)
(pop)
(push)
(assert (le x0 java.lang.Long))
(check-sat)
(push)
(assert (le x1 siena.Filter))
(check-sat)
(pop)
(push)
(assert (not (le x1 siena.Filter)))
(check-sat)
(pop)
(push)
(assert (le x1 siena.Filter))
(check-sat)
(pop)
(push)
(assert (not (le x1 siena.Filter)))
(check-sat)
(pop)
(push)
(assert (le x1 siena.Filter))
(check-sat)
(push)
(assert (le x0 java.lang.Long))
(check-sat)
(pop)
(push)
(assert (not (le x0 java.lang.Long)))
(check-sat)
(pop)
(pop)
(push)
(assert (not (le x1 siena.Filter)))
(check-sat)
(pop)
(push)
(assert (le x1 siena.Filter))
(check-sat)
(push)
(assert (le x0 java.lang.Long))
(check-sat)
(pop)
(push)
(assert (not (le x0 java.lang.Long)))
(check-sat)
(pop)
(pop)
(push)
(assert (not (le x1 siena.Filter)))
(check-sat)
(pop)
(push)
(assert (le x0 java.lang.Long))
(check-sat)
(pop)
(push)
(assert (not (le x0 java.lang.Long)))
(check-sat)
(pop)
(push)
(assert (le x1 siena.Filter))
(check-sat)
(pop)
(push)
(assert (not (le x1 siena.Filter)))
(check-sat)
(pop)
(pop)
(push)
(assert (not (le x0 java.lang.Long)))
(check-sat)
(pop)
(pop)
(push)
(assert (not (le x1 siena.Filter)))
(check-sat)
(pop)
(push)
(assert (le x0 siena.Event))
(check-sat)
(push)
(assert (le x1 siena.Filter))
(check-sat)
(pop)
(push)
(assert (not (le x1 siena.Filter)))
(check-sat)
(pop)
(push)
(assert (le x0 siena.Event))
(check-sat)
(pop)
(push)
(assert (not (le x0 siena.Event)))
(check-sat)
(pop)
(push)
(assert (le x1 siena.Filter))
(check-sat)
(push)
(assert (le x1 siena.Filter))
(check-sat)
(push)
(assert (le x1 siena.Filter))
(check-sat)
(pop)
(push)
(assert (not (le x1 siena.Filter)))
(check-sat)
(pop)
(pop)
(push)
(assert (not (le x1 siena.Filter)))
(check-sat)
(pop)
(push)
(assert (le x1 siena.Filter))
(check-sat)
(pop)
(push)
(assert (not (le x1 siena.Filter)))
(check-sat)
(pop)
(pop)
(push)
(assert (not (le x1 siena.Filter)))
(check-sat)
(pop)
(push)
(assert (le x0 siena.Event))
(check-sat)
(push)
(assert (le x1 siena.Filter))
(check-sat)
(pop)
(push)
(assert (not (le x1 siena.Filter)))
(check-sat)
(pop)
(pop)
(push)
(assert (not (le x0 siena.Event)))
(check-sat)
(pop)
(push)
(assert (le x0 siena.Event))
(check-sat)
(pop)
(push)
(assert (not (le x0 siena.Event)))
(check-sat)
(pop)
(push)
(assert (le x1 siena.Filter))
(check-sat)
(pop)
(push)
(assert (not (le x1 siena.Filter)))
(check-sat)
(pop)
(push)
(assert (le x0 siena.Event))
(check-sat)
(push)
(assert (le x1 siena.Filter))
(check-sat)
(pop)
(push)
(assert (not (le x1 siena.Filter)))
(check-sat)
(pop)
(push)
(assert (le x1 siena.Filter))
(check-sat)
(pop)
(push)
(assert (not (le x1 siena.Filter)))
(check-sat)
(pop)
(push)
(assert (le x0 siena.Event))
(check-sat)
(pop)
(push)
(assert (not (le x0 siena.Event)))
(check-sat)
(pop)
(push)
(assert (le x1 siena.Filter))
(check-sat)
(push)
(assert (le x0 siena.Event))
(check-sat)
(pop)
(push)
(assert (not (le x0 siena.Event)))
(check-sat)
(pop)
(pop)
(push)
(assert (not (le x1 siena.Filter)))
(check-sat)
(pop)
(push)
(assert (le x1 siena.Filter))
(check-sat)
(pop)
(push)
(assert (not (le x1 siena.Filter)))
(check-sat)
(pop)
(pop)
(push)
(assert (not (le x0 siena.Event)))
(check-sat)
(pop)
(pop)
(push)
(assert (not (le x0 siena.Event)))
(check-sat)
(push)
(assert (le x0 siena.Event))
(check-sat)
(pop)
(push)
(assert (not (le x0 siena.Event)))
(check-sat)
(pop)
(push)
(assert (le x1 siena.Filter))
(check-sat)
(pop)
(push)
(assert (not (le x1 siena.Filter)))
(check-sat)
(pop)
(push)
(assert (le x0 siena.Event))
(check-sat)
(pop)
(push)
(assert (not (le x0 siena.Event)))
(check-sat)
(pop)
(push)
(assert (le x0 siena.Event))
(check-sat)
(pop)
(push)
(assert (not (le x0 siena.Event)))
(check-sat)
(push)
(assert (le x1 siena.Filter))
(check-sat)
(push)
(assert (le x0 siena.Event))
(check-sat)
(pop)
(push)
(assert (not (le x0 siena.Event)))
(check-sat)
(pop)
(pop)
(push)
(assert (not (le x1 siena.Filter)))
(check-sat)
(pop)
(pop)
(pop)
(pop)
(push)
(assert (not (le x1 siena.Filter)))
(check-sat)
(push)
(assert (le x1 siena.Filter))
(check-sat)
(pop)
(push)
(assert (not (le x1 siena.Filter)))
(check-sat)
(push)
(assert (le x1 siena.Filter))
(check-sat)
(pop)
(push)
(assert (not (le x1 siena.Filter)))
(check-sat)
(pop)
(pop)
(push)
(assert (le x1 siena.Filter))
(check-sat)
(pop)
(push)
(assert (not (le x1 siena.Filter)))
(check-sat)
(push)
(assert (le x0 java.lang.StringBuilder))
(check-sat)
(pop)
(push)
(assert (not (le x0 java.lang.StringBuilder)))
(check-sat)
(push)
(assert (le x0 java.lang.StringBuilder))
(check-sat)
(pop)
(push)
(assert (not (le x0 java.lang.StringBuilder)))
(check-sat)
(pop)
(pop)
(push)
(assert (le x0 java.io.BufferedReader))
(check-sat)
(pop)
(push)
(assert (not (le x0 java.io.BufferedReader)))
(check-sat)
(push)
(assert (le x1 siena.Filter))
(check-sat)
(pop)
(push)
(assert (not (le x1 siena.Filter)))
(check-sat)
(pop)
(push)
(assert (le x1 siena.Filter))
(check-sat)
(pop)
(push)
(assert (not (le x1 siena.Filter)))
(check-sat)
(pop)
(push)
(assert (le x1 siena.Filter))
(check-sat)
(pop)
(push)
(assert (not (le x1 siena.Filter)))
(check-sat)
(push)
(assert (le x1 siena.Filter))
(check-sat)
(pop)
(push)
(assert (not (le x1 siena.Filter)))
(check-sat)
(pop)
(pop)
(push)
(assert (le x1 siena.Filter))
(check-sat)
(pop)
(push)
(assert (not (le x1 siena.Filter)))
(check-sat)
(pop)
(pop)
(push)
(assert (le x0 java.lang.String))
(check-sat)
(push)
(assert (le x1 siena.Filter))
(check-sat)
(pop)
(push)
(assert (not (le x1 siena.Filter)))
(check-sat)
(pop)
(push)
(assert (le x1 siena.Filter))
(check-sat)
(pop)
(push)
(assert (not (le x1 siena.Filter)))
(check-sat)
(push)
(assert (le x1 siena.Filter))
(check-sat)
(pop)
(push)
(assert (not (le x1 siena.Filter)))
(check-sat)
(pop)
(pop)
(push)
(assert (le x1 siena.Filter))
(check-sat)
(pop)
(push)
(assert (not (le x1 siena.Filter)))
(check-sat)
(pop)
(push)
(assert (le x1 siena.Filter))
(check-sat)
(pop)
(push)
(assert (not (le x1 siena.Filter)))
(check-sat)
(pop)
(push)
(assert (le x1 siena.Filter))
(check-sat)
(pop)
(push)
(assert (not (le x1 siena.Filter)))
(check-sat)
(pop)
(pop)
(push)
(assert (not (le x0 java.lang.String)))
(check-sat)
(pop)
(pop)
(pop)
